Minimize
 +  6 x1 +  15 x2 +  10 x3 +  5 x4 +  8 x5 +  9 x6 +  19 x7 +  x8 +  x9 +  x10 +  16 x11 +  18 x12 +  14 x13 +  2 x14 +  18 x15 +  3 x16 +  15 x17 +  16 x18 +  12 x19 +  5 x20 +  5 x21 +  3 x22 +  15 x23 +  6 x24 +  18 x25 +  19 x26 +  17 x27 +  8 x28 +  14 x29 +  16 x30 +  10 x31 +  17 x32 +  13 x33 +  8 x34 +  17 x35 +  18 x36 +  10 x37 +  10 x38 +  19 x39 +  5 x40 +  9 x41 +  8 x42 +  6 x43 +  14 x44 +  4 x45 +  19 x46 +  9 x47 +  17 x48 +  9 x49 +  3 x50 +  5 x51 +  10 x52 +  11 x53 +  12 x54 +  14 x55 +  19 x56 +  11 x57 +  5 x58 +  16 x59 +  2 x60 +  4 x61 +  7 x62 +  16 x63 +  2 x64 +  18 x65 +  3 x66 +  6 x67 +  4 x68 +  19 x69 +  7 x70 +  8 x71 +  15 x72 +  8 x73 +  2 x74 +  3 x75 +  8 x76 +  7 x77 +  9 x78 +  18 x79 +  16 x80 +  19 x81 +  4 x82 +  19 x83 +  6 x84 +  15 x85 +  7 x86 +  8 x87 +  6 x88 +  6 x89 +  15 x90 +  10 x91 +  18 x92 +  3 x93 +  7 x94 +  16 x95 +  3 x96 +  14 x97 +  11 x98 +  10 x99 +  5 x100 +  6 x101 +  2 x102 +  2 x103 +  9 x104 +  11 x105 +  5 x106 +  5 x107 +  14 x108 +  17 x109 +  3 x110 +  18 x111 +  6 x112 +  2 x113 +  11 x114 +  x115 +  18 x116 +  5 x117 +  4 x118 +  12 x119 +  13 x120 +  16 x121 +  12 x122 +  12 x123 +  15 x124 +  14 x125 +  12 x126 +  19 x127 +  17 x128 +  9 x129 +  16 x130 +  4 x131 +  15 x132 +  13 x133 +  x134 +  4 x135 +  7 x136 +  5 x137 +  18 x138 +  2 x139 +  7 x140 +  x141 +  19 x142 +  15 x143 +  17 x144 +  15 x145 +  12 x146 +  12 x147 +  5 x148 +  3 x149 +  6 x150 +  6 x151 +  2 x152 +  14 x153 +  2 x154 +  4 x155 +  3 x156 +  6 x157 +  4 x158 +  7 x159 +  18 x160 +  13 x161 +  19 x162 +  11 x163 +  13 x164 +  13 x165 +  13 x166 +  2 x167 +  6 x168 +  2 x169 +  15 x170 +  6 x171 +  13 x172 +  x173 +  12 x174 +  10 x175 +  9 x176 +  2 x177 +  15 x178 +  13 x179 +  2 x180 +  5 x181 +  3 x182 +  5 x183 +  18 x184 +  14 x185 +  7 x186 +  12 x187 +  5 x188 +  17 x189 +  19 x190 +  6 x191 +  4 x192 +  6 x193 +  9 x194 +  18 x195 +  12 x196 +  17 x197 +  3 x198 +  17 x199 +  13 x200 +  15 x201 +  9 x202 +  6 x203 +  17 x204 +  7 x205 +  3 x206 +  2 x207 +  x208 +  13 x209 +  x210 +  3 x211 +  3 x212 +  9 x213 +  17 x214 +  16 x215 +  19 x216 +  10 x217 +  11 x218 +  6 x219 +  14 x220 +  17 x221 +  14 x222 +  18 x223 +  19 x224 +  9 x225 +  18 x226 +  8 x227 +  14 x228 +  7 x229 +  14 x230 +  6 x231 +  11 x232 +  12 x233 +  18 x234 +  10 x235 +  19 x236 +  5 x237 +  2 x238 +  17 x239 +  15 x240 +  x241 +  16 x242 +  16 x243 +  5 x244 +  17 x245 +  2 x246 +  15 x247 +  11 x248 +  4 x249 +  9 x250 +  5 x251 +  17 x252 +  6 x253 +  11 x254 +  x255 +  5 x256 +  6 x257 +  9 x258 +  6 x259 +  3 x260 +  3 x261 +  9 x262 +  10 x263 +  7 x264 +  5 x265 +  2 x266 +  4 x267 +  2 x268 +  10 x269 +  7 x270 +  2 x271 +  x272 +  15 x273 +  11 x274 +  x275 +  18 x276 +  3 x277 +  19 x278 +  13 x279 +  12 x280 +  12 x281 +  10 x282 +  6 x283 +  5 x284 +  19 x285 +  7 x286 +  17 x287 +  10 x288 +  16 x289 +  16 x290 +  17 x291 +  16 x292 +  3 x293 +  10 x294 +  19 x295 +  17 x296 +  17 x297 +  x298 +  3 x299 +  2 x300 +  8 x301 +  7 x302 +  3 x303 +  13 x304 +  9 x305 +  14 x306 +  4 x307 +  14 x308 +  x309 +  13 x310 +  x311 +  14 x312 +  4 x313 +  19 x314 +  8 x315 +  10 x316 +  2 x317 +  3 x318 +  12 x319 +  x320 +  3 x321 +  x322 +  8 x323 +  8 x324 +  5 x325 +  3 x326 +  6 x327 +  17 x328 +  x329 +  9 x330 +  16 x331 +  8 x332 +  11 x333 +  9 x334 +  4 x335 +  10 x336 +  13 x337 +  10 x338 +  11 x339 +  5 x340 +  17 x341 +  6 x342 +  2 x343 +  6 x344 +  3 x345 +  16 x346 +  5 x347 +  6 x348 +  17 x349 +  15 x350 +  12 x351 +  12 x352 +  17 x353 +  x354 +  12 x355 +  12 x356 +  13 x357 +  14 x358 +  4 x359 +  3 x360 +  5 x361 +  14 x362 +  18 x363 +  13 x364 +  2 x365 +  12 x366 +  18 x367 +  17 x368 +  12 x369 +  7 x370 +  5 x371 +  4 x372 +  7 x373 +  7 x374 +  13 x375 +  18 x376 +  7 x377 +  2 x378 +  16 x379 +  3 x380 +  10 x381 +  10 x382 +  3 x383 +  14 x384 +  13 x385 +  5 x386 +  10 x387 +  12 x388 +  7 x389 +  13 x390 +  3 x391 +  14 x392 +  7 x393 +  7 x394 +  x395 +  x396 +  6 x397 +  12 x398 +  6 x399 +  7 x400
Subject To
 +  x1 +  x21 +  x41 +  x61 +  x81 +  x101 +  x121 +  x141 +  x161 +  x181 +  x201 +  x221 +  x241 +  x261 +  x281 +  x301 +  x321 +  x341 +  x361 +  x381 = 1
 +  x2 +  x22 +  x42 +  x62 +  x82 +  x102 +  x122 +  x142 +  x162 +  x182 +  x202 +  x222 +  x242 +  x262 +  x282 +  x302 +  x322 +  x342 +  x362 +  x382 = 1
 +  x3 +  x23 +  x43 +  x63 +  x83 +  x103 +  x123 +  x143 +  x163 +  x183 +  x203 +  x223 +  x243 +  x263 +  x283 +  x303 +  x323 +  x343 +  x363 +  x383 = 1
 +  x4 +  x24 +  x44 +  x64 +  x84 +  x104 +  x124 +  x144 +  x164 +  x184 +  x204 +  x224 +  x244 +  x264 +  x284 +  x304 +  x324 +  x344 +  x364 +  x384 = 1
 +  x5 +  x25 +  x45 +  x65 +  x85 +  x105 +  x125 +  x145 +  x165 +  x185 +  x205 +  x225 +  x245 +  x265 +  x285 +  x305 +  x325 +  x345 +  x365 +  x385 = 1
 +  x6 +  x26 +  x46 +  x66 +  x86 +  x106 +  x126 +  x146 +  x166 +  x186 +  x206 +  x226 +  x246 +  x266 +  x286 +  x306 +  x326 +  x346 +  x366 +  x386 = 1
 +  x7 +  x27 +  x47 +  x67 +  x87 +  x107 +  x127 +  x147 +  x167 +  x187 +  x207 +  x227 +  x247 +  x267 +  x287 +  x307 +  x327 +  x347 +  x367 +  x387 = 1
 +  x8 +  x28 +  x48 +  x68 +  x88 +  x108 +  x128 +  x148 +  x168 +  x188 +  x208 +  x228 +  x248 +  x268 +  x288 +  x308 +  x328 +  x348 +  x368 +  x388 = 1
 +  x9 +  x29 +  x49 +  x69 +  x89 +  x109 +  x129 +  x149 +  x169 +  x189 +  x209 +  x229 +  x249 +  x269 +  x289 +  x309 +  x329 +  x349 +  x369 +  x389 = 1
 +  x10 +  x30 +  x50 +  x70 +  x90 +  x110 +  x130 +  x150 +  x170 +  x190 +  x210 +  x230 +  x250 +  x270 +  x290 +  x310 +  x330 +  x350 +  x370 +  x390 = 1
 +  x11 +  x31 +  x51 +  x71 +  x91 +  x111 +  x131 +  x151 +  x171 +  x191 +  x211 +  x231 +  x251 +  x271 +  x291 +  x311 +  x331 +  x351 +  x371 +  x391 = 1
 +  x12 +  x32 +  x52 +  x72 +  x92 +  x112 +  x132 +  x152 +  x172 +  x192 +  x212 +  x232 +  x252 +  x272 +  x292 +  x312 +  x332 +  x352 +  x372 +  x392 = 1
 +  x13 +  x33 +  x53 +  x73 +  x93 +  x113 +  x133 +  x153 +  x173 +  x193 +  x213 +  x233 +  x253 +  x273 +  x293 +  x313 +  x333 +  x353 +  x373 +  x393 = 1
 +  x14 +  x34 +  x54 +  x74 +  x94 +  x114 +  x134 +  x154 +  x174 +  x194 +  x214 +  x234 +  x254 +  x274 +  x294 +  x314 +  x334 +  x354 +  x374 +  x394 = 1
 +  x15 +  x35 +  x55 +  x75 +  x95 +  x115 +  x135 +  x155 +  x175 +  x195 +  x215 +  x235 +  x255 +  x275 +  x295 +  x315 +  x335 +  x355 +  x375 +  x395 = 1
 +  x16 +  x36 +  x56 +  x76 +  x96 +  x116 +  x136 +  x156 +  x176 +  x196 +  x216 +  x236 +  x256 +  x276 +  x296 +  x316 +  x336 +  x356 +  x376 +  x396 = 1
 +  x17 +  x37 +  x57 +  x77 +  x97 +  x117 +  x137 +  x157 +  x177 +  x197 +  x217 +  x237 +  x257 +  x277 +  x297 +  x317 +  x337 +  x357 +  x377 +  x397 = 1
 +  x18 +  x38 +  x58 +  x78 +  x98 +  x118 +  x138 +  x158 +  x178 +  x198 +  x218 +  x238 +  x258 +  x278 +  x298 +  x318 +  x338 +  x358 +  x378 +  x398 = 1
 +  x19 +  x39 +  x59 +  x79 +  x99 +  x119 +  x139 +  x159 +  x179 +  x199 +  x219 +  x239 +  x259 +  x279 +  x299 +  x319 +  x339 +  x359 +  x379 +  x399 = 1
 +  x20 +  x40 +  x60 +  x80 +  x100 +  x120 +  x140 +  x160 +  x180 +  x200 +  x220 +  x240 +  x260 +  x280 +  x300 +  x320 +  x340 +  x360 +  x380 +  x400 = 1
 +  x1 +  x2 +  x3 +  x4 +  x5 +  x6 +  x7 +  x8 +  x9 +  x10 +  x11 +  x12 +  x13 +  x14 +  x15 +  x16 +  x17 +  x18 +  x19 +  x20 = 1
 +  x21 +  x22 +  x23 +  x24 +  x25 +  x26 +  x27 +  x28 +  x29 +  x30 +  x31 +  x32 +  x33 +  x34 +  x35 +  x36 +  x37 +  x38 +  x39 +  x40 = 1
 +  x41 +  x42 +  x43 +  x44 +  x45 +  x46 +  x47 +  x48 +  x49 +  x50 +  x51 +  x52 +  x53 +  x54 +  x55 +  x56 +  x57 +  x58 +  x59 +  x60 = 1
 +  x61 +  x62 +  x63 +  x64 +  x65 +  x66 +  x67 +  x68 +  x69 +  x70 +  x71 +  x72 +  x73 +  x74 +  x75 +  x76 +  x77 +  x78 +  x79 +  x80 = 1
 +  x81 +  x82 +  x83 +  x84 +  x85 +  x86 +  x87 +  x88 +  x89 +  x90 +  x91 +  x92 +  x93 +  x94 +  x95 +  x96 +  x97 +  x98 +  x99 +  x100 = 1
 +  x101 +  x102 +  x103 +  x104 +  x105 +  x106 +  x107 +  x108 +  x109 +  x110 +  x111 +  x112 +  x113 +  x114 +  x115 +  x116 +  x117 +  x118 +  x119 +  x120 = 1
 +  x121 +  x122 +  x123 +  x124 +  x125 +  x126 +  x127 +  x128 +  x129 +  x130 +  x131 +  x132 +  x133 +  x134 +  x135 +  x136 +  x137 +  x138 +  x139 +  x140 = 1
 +  x141 +  x142 +  x143 +  x144 +  x145 +  x146 +  x147 +  x148 +  x149 +  x150 +  x151 +  x152 +  x153 +  x154 +  x155 +  x156 +  x157 +  x158 +  x159 +  x160 = 1
 +  x161 +  x162 +  x163 +  x164 +  x165 +  x166 +  x167 +  x168 +  x169 +  x170 +  x171 +  x172 +  x173 +  x174 +  x175 +  x176 +  x177 +  x178 +  x179 +  x180 = 1
 +  x181 +  x182 +  x183 +  x184 +  x185 +  x186 +  x187 +  x188 +  x189 +  x190 +  x191 +  x192 +  x193 +  x194 +  x195 +  x196 +  x197 +  x198 +  x199 +  x200 = 1
 +  x201 +  x202 +  x203 +  x204 +  x205 +  x206 +  x207 +  x208 +  x209 +  x210 +  x211 +  x212 +  x213 +  x214 +  x215 +  x216 +  x217 +  x218 +  x219 +  x220 = 1
 +  x221 +  x222 +  x223 +  x224 +  x225 +  x226 +  x227 +  x228 +  x229 +  x230 +  x231 +  x232 +  x233 +  x234 +  x235 +  x236 +  x237 +  x238 +  x239 +  x240 = 1
 +  x241 +  x242 +  x243 +  x244 +  x245 +  x246 +  x247 +  x248 +  x249 +  x250 +  x251 +  x252 +  x253 +  x254 +  x255 +  x256 +  x257 +  x258 +  x259 +  x260 = 1
 +  x261 +  x262 +  x263 +  x264 +  x265 +  x266 +  x267 +  x268 +  x269 +  x270 +  x271 +  x272 +  x273 +  x274 +  x275 +  x276 +  x277 +  x278 +  x279 +  x280 = 1
 +  x281 +  x282 +  x283 +  x284 +  x285 +  x286 +  x287 +  x288 +  x289 +  x290 +  x291 +  x292 +  x293 +  x294 +  x295 +  x296 +  x297 +  x298 +  x299 +  x300 = 1
 +  x301 +  x302 +  x303 +  x304 +  x305 +  x306 +  x307 +  x308 +  x309 +  x310 +  x311 +  x312 +  x313 +  x314 +  x315 +  x316 +  x317 +  x318 +  x319 +  x320 = 1
 +  x321 +  x322 +  x323 +  x324 +  x325 +  x326 +  x327 +  x328 +  x329 +  x330 +  x331 +  x332 +  x333 +  x334 +  x335 +  x336 +  x337 +  x338 +  x339 +  x340 = 1
 +  x341 +  x342 +  x343 +  x344 +  x345 +  x346 +  x347 +  x348 +  x349 +  x350 +  x351 +  x352 +  x353 +  x354 +  x355 +  x356 +  x357 +  x358 +  x359 +  x360 = 1
 +  x361 +  x362 +  x363 +  x364 +  x365 +  x366 +  x367 +  x368 +  x369 +  x370 +  x371 +  x372 +  x373 +  x374 +  x375 +  x376 +  x377 +  x378 +  x379 +  x380 = 1
 +  x381 +  x382 +  x383 +  x384 +  x385 +  x386 +  x387 +  x388 +  x389 +  x390 +  x391 +  x392 +  x393 +  x394 +  x395 +  x396 +  x397 +  x398 +  x399 +  x400 = 1
 -1 x2 -1 x21 >= -1
 -1 x3 -1 x22 -1 x41 >= -1
 -1 x4 -1 x23 -1 x42 -1 x61 >= -1
 -1 x5 -1 x24 -1 x43 -1 x62 -1 x81 >= -1
 -1 x6 -1 x25 -1 x44 -1 x63 -1 x82 -1 x101 >= -1
 -1 x7 -1 x26 -1 x45 -1 x64 -1 x83 -1 x102 -1 x121 >= -1
 -1 x8 -1 x27 -1 x46 -1 x65 -1 x84 -1 x103 -1 x122 -1 x141 >= -1
 -1 x9 -1 x28 -1 x47 -1 x66 -1 x85 -1 x104 -1 x123 -1 x142 -1 x161 >= -1
 -1 x10 -1 x29 -1 x48 -1 x67 -1 x86 -1 x105 -1 x124 -1 x143 -1 x162 -1 x181 >= -1
 -1 x11 -1 x30 -1 x49 -1 x68 -1 x87 -1 x106 -1 x125 -1 x144 -1 x163 -1 x182 -1 x201 >= -1
 -1 x12 -1 x31 -1 x50 -1 x69 -1 x88 -1 x107 -1 x126 -1 x145 -1 x164 -1 x183 -1 x202 -1 x221 >= -1
 -1 x13 -1 x32 -1 x51 -1 x70 -1 x89 -1 x108 -1 x127 -1 x146 -1 x165 -1 x184 -1 x203 -1 x222 -1 x241 >= -1
 -1 x14 -1 x33 -1 x52 -1 x71 -1 x90 -1 x109 -1 x128 -1 x147 -1 x166 -1 x185 -1 x204 -1 x223 -1 x242 -1 x261 >= -1
 -1 x15 -1 x34 -1 x53 -1 x72 -1 x91 -1 x110 -1 x129 -1 x148 -1 x167 -1 x186 -1 x205 -1 x224 -1 x243 -1 x262 -1 x281 >= -1
 -1 x16 -1 x35 -1 x54 -1 x73 -1 x92 -1 x111 -1 x130 -1 x149 -1 x168 -1 x187 -1 x206 -1 x225 -1 x244 -1 x263 -1 x282 -1 x301 >= -1
 -1 x17 -1 x36 -1 x55 -1 x74 -1 x93 -1 x112 -1 x131 -1 x150 -1 x169 -1 x188 -1 x207 -1 x226 -1 x245 -1 x264 -1 x283 -1 x302 -1 x321 >= -1
 -1 x18 -1 x37 -1 x56 -1 x75 -1 x94 -1 x113 -1 x132 -1 x151 -1 x170 -1 x189 -1 x208 -1 x227 -1 x246 -1 x265 -1 x284 -1 x303 -1 x322 -1 x341 >= -1
 -1 x19 -1 x38 -1 x57 -1 x76 -1 x95 -1 x114 -1 x133 -1 x152 -1 x171 -1 x190 -1 x209 -1 x228 -1 x247 -1 x266 -1 x285 -1 x304 -1 x323 -1 x342 -1 x361 >= -1
 -1 x20 -1 x39 -1 x58 -1 x77 -1 x96 -1 x115 -1 x134 -1 x153 -1 x172 -1 x191 -1 x210 -1 x229 -1 x248 -1 x267 -1 x286 -1 x305 -1 x324 -1 x343 -1 x362 -1 x381 >= -1
 -1 x40 -1 x59 -1 x78 -1 x97 -1 x116 -1 x135 -1 x154 -1 x173 -1 x192 -1 x211 -1 x230 -1 x249 -1 x268 -1 x287 -1 x306 -1 x325 -1 x344 -1 x363 -1 x382 >= -1
 -1 x60 -1 x79 -1 x98 -1 x117 -1 x136 -1 x155 -1 x174 -1 x193 -1 x212 -1 x231 -1 x250 -1 x269 -1 x288 -1 x307 -1 x326 -1 x345 -1 x364 -1 x383 >= -1
 -1 x80 -1 x99 -1 x118 -1 x137 -1 x156 -1 x175 -1 x194 -1 x213 -1 x232 -1 x251 -1 x270 -1 x289 -1 x308 -1 x327 -1 x346 -1 x365 -1 x384 >= -1
 -1 x100 -1 x119 -1 x138 -1 x157 -1 x176 -1 x195 -1 x214 -1 x233 -1 x252 -1 x271 -1 x290 -1 x309 -1 x328 -1 x347 -1 x366 -1 x385 >= -1
 -1 x120 -1 x139 -1 x158 -1 x177 -1 x196 -1 x215 -1 x234 -1 x253 -1 x272 -1 x291 -1 x310 -1 x329 -1 x348 -1 x367 -1 x386 >= -1
 -1 x140 -1 x159 -1 x178 -1 x197 -1 x216 -1 x235 -1 x254 -1 x273 -1 x292 -1 x311 -1 x330 -1 x349 -1 x368 -1 x387 >= -1
 -1 x160 -1 x179 -1 x198 -1 x217 -1 x236 -1 x255 -1 x274 -1 x293 -1 x312 -1 x331 -1 x350 -1 x369 -1 x388 >= -1
 -1 x180 -1 x199 -1 x218 -1 x237 -1 x256 -1 x275 -1 x294 -1 x313 -1 x332 -1 x351 -1 x370 -1 x389 >= -1
 -1 x200 -1 x219 -1 x238 -1 x257 -1 x276 -1 x295 -1 x314 -1 x333 -1 x352 -1 x371 -1 x390 >= -1
 -1 x220 -1 x239 -1 x258 -1 x277 -1 x296 -1 x315 -1 x334 -1 x353 -1 x372 -1 x391 >= -1
 -1 x240 -1 x259 -1 x278 -1 x297 -1 x316 -1 x335 -1 x354 -1 x373 -1 x392 >= -1
 -1 x260 -1 x279 -1 x298 -1 x317 -1 x336 -1 x355 -1 x374 -1 x393 >= -1
 -1 x280 -1 x299 -1 x318 -1 x337 -1 x356 -1 x375 -1 x394 >= -1
 -1 x300 -1 x319 -1 x338 -1 x357 -1 x376 -1 x395 >= -1
 -1 x320 -1 x339 -1 x358 -1 x377 -1 x396 >= -1
 -1 x340 -1 x359 -1 x378 -1 x397 >= -1
 -1 x360 -1 x379 -1 x398 >= -1
 -1 x380 -1 x399 >= -1
 -1 x19 -1 x40 >= -1
 -1 x18 -1 x39 -1 x60 >= -1
 -1 x17 -1 x38 -1 x59 -1 x80 >= -1
 -1 x16 -1 x37 -1 x58 -1 x79 -1 x100 >= -1
 -1 x15 -1 x36 -1 x57 -1 x78 -1 x99 -1 x120 >= -1
 -1 x14 -1 x35 -1 x56 -1 x77 -1 x98 -1 x119 -1 x140 >= -1
 -1 x13 -1 x34 -1 x55 -1 x76 -1 x97 -1 x118 -1 x139 -1 x160 >= -1
 -1 x12 -1 x33 -1 x54 -1 x75 -1 x96 -1 x117 -1 x138 -1 x159 -1 x180 >= -1
 -1 x11 -1 x32 -1 x53 -1 x74 -1 x95 -1 x116 -1 x137 -1 x158 -1 x179 -1 x200 >= -1
 -1 x10 -1 x31 -1 x52 -1 x73 -1 x94 -1 x115 -1 x136 -1 x157 -1 x178 -1 x199 -1 x220 >= -1
 -1 x9 -1 x30 -1 x51 -1 x72 -1 x93 -1 x114 -1 x135 -1 x156 -1 x177 -1 x198 -1 x219 -1 x240 >= -1
 -1 x8 -1 x29 -1 x50 -1 x71 -1 x92 -1 x113 -1 x134 -1 x155 -1 x176 -1 x197 -1 x218 -1 x239 -1 x260 >= -1
 -1 x7 -1 x28 -1 x49 -1 x70 -1 x91 -1 x112 -1 x133 -1 x154 -1 x175 -1 x196 -1 x217 -1 x238 -1 x259 -1 x280 >= -1
 -1 x6 -1 x27 -1 x48 -1 x69 -1 x90 -1 x111 -1 x132 -1 x153 -1 x174 -1 x195 -1 x216 -1 x237 -1 x258 -1 x279 -1 x300 >= -1
 -1 x5 -1 x26 -1 x47 -1 x68 -1 x89 -1 x110 -1 x131 -1 x152 -1 x173 -1 x194 -1 x215 -1 x236 -1 x257 -1 x278 -1 x299 -1 x320 >= -1
 -1 x4 -1 x25 -1 x46 -1 x67 -1 x88 -1 x109 -1 x130 -1 x151 -1 x172 -1 x193 -1 x214 -1 x235 -1 x256 -1 x277 -1 x298 -1 x319 -1 x340 >= -1
 -1 x3 -1 x24 -1 x45 -1 x66 -1 x87 -1 x108 -1 x129 -1 x150 -1 x171 -1 x192 -1 x213 -1 x234 -1 x255 -1 x276 -1 x297 -1 x318 -1 x339 -1 x360 >= -1
 -1 x2 -1 x23 -1 x44 -1 x65 -1 x86 -1 x107 -1 x128 -1 x149 -1 x170 -1 x191 -1 x212 -1 x233 -1 x254 -1 x275 -1 x296 -1 x317 -1 x338 -1 x359 -1 x380 >= -1
 -1 x1 -1 x22 -1 x43 -1 x64 -1 x85 -1 x106 -1 x127 -1 x148 -1 x169 -1 x190 -1 x211 -1 x232 -1 x253 -1 x274 -1 x295 -1 x316 -1 x337 -1 x358 -1 x379 -1 x400 >= -1
 -1 x21 -1 x42 -1 x63 -1 x84 -1 x105 -1 x126 -1 x147 -1 x168 -1 x189 -1 x210 -1 x231 -1 x252 -1 x273 -1 x294 -1 x315 -1 x336 -1 x357 -1 x378 -1 x399 >= -1
 -1 x41 -1 x62 -1 x83 -1 x104 -1 x125 -1 x146 -1 x167 -1 x188 -1 x209 -1 x230 -1 x251 -1 x272 -1 x293 -1 x314 -1 x335 -1 x356 -1 x377 -1 x398 >= -1
 -1 x61 -1 x82 -1 x103 -1 x124 -1 x145 -1 x166 -1 x187 -1 x208 -1 x229 -1 x250 -1 x271 -1 x292 -1 x313 -1 x334 -1 x355 -1 x376 -1 x397 >= -1
 -1 x81 -1 x102 -1 x123 -1 x144 -1 x165 -1 x186 -1 x207 -1 x228 -1 x249 -1 x270 -1 x291 -1 x312 -1 x333 -1 x354 -1 x375 -1 x396 >= -1
 -1 x101 -1 x122 -1 x143 -1 x164 -1 x185 -1 x206 -1 x227 -1 x248 -1 x269 -1 x290 -1 x311 -1 x332 -1 x353 -1 x374 -1 x395 >= -1
 -1 x121 -1 x142 -1 x163 -1 x184 -1 x205 -1 x226 -1 x247 -1 x268 -1 x289 -1 x310 -1 x331 -1 x352 -1 x373 -1 x394 >= -1
 -1 x141 -1 x162 -1 x183 -1 x204 -1 x225 -1 x246 -1 x267 -1 x288 -1 x309 -1 x330 -1 x351 -1 x372 -1 x393 >= -1
 -1 x161 -1 x182 -1 x203 -1 x224 -1 x245 -1 x266 -1 x287 -1 x308 -1 x329 -1 x350 -1 x371 -1 x392 >= -1
 -1 x181 -1 x202 -1 x223 -1 x244 -1 x265 -1 x286 -1 x307 -1 x328 -1 x349 -1 x370 -1 x391 >= -1
 -1 x201 -1 x222 -1 x243 -1 x264 -1 x285 -1 x306 -1 x327 -1 x348 -1 x369 -1 x390 >= -1
 -1 x221 -1 x242 -1 x263 -1 x284 -1 x305 -1 x326 -1 x347 -1 x368 -1 x389 >= -1
 -1 x241 -1 x262 -1 x283 -1 x304 -1 x325 -1 x346 -1 x367 -1 x388 >= -1
 -1 x261 -1 x282 -1 x303 -1 x324 -1 x345 -1 x366 -1 x387 >= -1
 -1 x281 -1 x302 -1 x323 -1 x344 -1 x365 -1 x386 >= -1
 -1 x301 -1 x322 -1 x343 -1 x364 -1 x385 >= -1
 -1 x321 -1 x342 -1 x363 -1 x384 >= -1
 -1 x341 -1 x362 -1 x383 >= -1
 -1 x361 -1 x382 >= -1
Binary
x285 x186 x87 x267 x21 x43 x384 x65 x32 x393 x54 x195 x168 x348 x249 x10 x98 x278 x159 x379 x76 x296 x177 x357 x86 x266 x187 x248 x42 x64 x284 x385 x33 x194 x55 x176 x169 x349 x11 x392 x378 x99 x279 x20 x356 x77 x297 x158 x265 x386 x67 x287 x41 x23 x184 x85 x391 x12 x74 x294 x148 x368 x229 x30 x258 x139 x319 x175 x355 x56 x197 x66 x286 x387 x228 x22 x84 x264 x185 x13 x174 x354 x75 x149 x369 x390 x31 x318 x259 x40 x295 x196 x57 x138 x263 x25 x47 x128 x61 x281 x182 x83 x72 x292 x173 x353 x308 x209 x50 x191 x119 x339 x380 x14 x36 x397 x238 x24 x46 x208 x129 x381 x82 x262 x183 x352 x73 x293 x15 x309 x190 x51 x172 x239 x60 x280 x396 x37 x118 x338 x283 x45 x27 x108 x81 x261 x382 x63 x171 x351 x52 x193 x328 x9 x70 x290 x180 x34 x395 x16 x218 x44 x26 x8 x109 x181 x62 x282 x383 x291 x192 x53 x394 x329 x170 x350 x71 x260 x35 x17 x219 x80 x124 x304 x205 x106 x241 x142 x362 x223 x270 x151 x371 x252 x326 x7 x29 x90 x335 x216 x18 x160 x133 x313 x234 x115 x340 x363 x204 x125 x305 x161 x341 x222 x143 x150 x370 x91 x271 x6 x107 x327 x28 x334 x235 x217 x19 x132 x312 x253 x114 x240 x104 x324 x5 x126 x221 x162 x342 x243 x131 x311 x92 x272 x306 x207 x49 x250 x117 x337 x38 x399 x153 x373 x214 x236 x140 x360 x343 x4 x105 x325 x141 x361 x242 x163 x130 x310 x251 x152 x206 x127 x307 x48 x116 x336 x237 x398 x372 x93 x273 x215 x39 x220 x400 x164 x344 x245 x146 x201 x102 x322 x3 x289 x230 x111 x331 x366 x227 x388 x69 x375 x256 x137 x317 x212 x94 x274 x155 x58 x199 x120 x300 x323 x244 x165 x345 x121 x301 x2 x103 x288 x389 x110 x330 x226 x147 x367 x68 x95 x275 x136 x316 x231 x213 x154 x374 x257 x198 x59 x200 x144 x364 x225 x166 x1 x122 x302 x203 x269 x210 x232 x113 x346 x247 x188 x89 x96 x276 x157 x377 x333 x254 x135 x315 x100 x320 x78 x298 x179 x359 x303 x224 x145 x365 x101 x321 x202 x123 x268 x189 x211 x112 x246 x167 x347 x88 x255 x156 x376 x97 x332 x233 x134 x314 x299 x277 x178 x358 x79 
